4 10
407 377 351 475 
0 89 93 21 11 40 30 51 48 27 12 13 38 65 55 36 9 94 16 69 94 2
1 37 45 76 80 31 22 49 57 22 50 46 2 38 5 91 63 83 62 11 8 3
2 69 79 54 50 37 28 101 99 85 30 90 99 74 86 47 61 56 44 57 69 4
3 12 12 71 67 20 13 66 68 66 80 36 89 39 66 32 1 46 52 88 21 3
4 102 93 48 44 94 94 40 37 63 47 35 76 1 64 97 28 99 49 37 49 4
5 73 75 28 29 75 76 22 30 78 42 91 62 31 5 60 90 81 47 96 90 2
6 8 18 50 45 71 71 100 98 73 72 42 4 3 76 65 45 83 27 12 34 3
7 4 13 55 51 95 90 25 28 61 76 100 97 15 3 92 42 50 62 56 27 4
8 69 78 46 45 10 11 87 78 99 86 45 48 66 41 47 89 15 11 2 16 2
9 1 3 58 50 1 4 44 51 55 38 92 93 20 78 87 81 86 25 40 48 3
